Automatic mesh - Gamma centered 8x8x8
0
Gamma
8 8 8
0. 0. 0.
